objective value:                                   -7
t_n_0                                               1 	(obj:-1)
t_n_548                                             1 	(obj:-1)
t_n_577                                             1 	(obj:-1)
t_n_617                                             1 	(obj:-1)
t_n_858                                             1 	(obj:-1)
t_n_983                                             1 	(obj:-1)
t_n_988                                             1 	(obj:-1)
